p cnf 90 294
a 74 11 0
e 1 2 3 4 5 6 7 8 9 10 12 13 14 15 16 17 18 19 20 21 22 23 24 25 26 27 28 29 30 31 32 33 34 35 36 37 38 39 40 41 42 43 44 45 46 47 48 49 50 51 52 53 54 55 56 57 58 59 60 61 62 63 64 65 66 67 68 69 70 71 72 73 75 76 77 78 79 80 81 82 83 84 85 86 87 88 89 90 0
4 3 0
4 3 0
-3 -4 0
-5 -4 0
-5 -4 0
4 5 0
-2 -5 -6 0
2 5 -6 0
-2 5 6 0
2 -5 6 0
-7 1 0
-7 -6 0
-1 6 7 0
10 -8 0
10 2 0
8 -2 -10 0
-11 9 0
-11 10 0
-9 -10 11 0
-12 -8 0
-12 11 0
8 -11 12 0
-9 -13 -14 0
9 13 -14 0
-9 13 14 0
9 -13 14 0
-15 -1 0
-15 -14 0
1 14 15 0
16 4 0
16 -15 0
-4 15 -16 0
17 12 0
17 16 0
-12 -16 -17 0
-7 -17 -18 0
7 17 -18 0
-7 17 18 0
7 -17 18 0
-8 19 -20 0
8 -19 -20 0
-8 -19 20 0
8 19 20 0
-21 -20 0
-21 13 0
20 -13 21 0
21 10 -22 0
-21 -10 -22 0
21 -10 22 0
-21 10 22 0
24 -2 0
24 -8 0
2 8 -24 0
25 -24 0
25 3 0
24 -3 -25 0
-25 -10 -26 0
25 10 -26 0
-25 10 26 0
25 -10 26 0
-27 -26 0
-27 1 0
26 -1 27 0
-28 -11 0
-28 -6 0
11 6 28 0
27 28 -29 0
-27 -28 -29 0
27 -28 29 0
-27 28 29 0
30 23 0
30 -29 0
-23 29 -30 0
32 -31 0
32 -4 0
31 4 -32 0
-33 20 0
-33 -32 0
-20 32 33 0
-34 33 0
-34 -9 0
-33 9 34 0
36 -5 0
36 -31 0
5 31 -36 0
37 -35 0
37 36 0
35 -36 -37 0
-2 35 -38 0
2 -35 -38 0
-2 -35 38 0
2 35 38 0
-39 14 0
-39 38 0
-14 -38 39 0
-40 37 0
-40 -39 0
-37 39 40 0
-41 -5 0
-41 31 0
5 -31 41 0
-42 -36 0
-42 -41 0
36 41 42 0
-43 -40 0
-43 42 0
40 -42 43 0
34 -43 -44 0
-34 43 -44 0
34 43 44 0
-34 -43 44 0
45 -30 0
45 44 0
30 -44 -45 0
-46 -20 0
-46 -9 0
20 9 46 0
47 5 0
47 8 0
-5 -8 -47 0
-48 47 0
-48 -9 0
-47 9 48 0
49 -47 0
49 48 0
47 -48 -49 0
-50 31 0
-50 47 0
-31 -47 50 0
51 49 0
51 50 0
-49 -50 -51 0
-52 46 0
-52 -51 0
-46 51 52 0
-9 -13 -53 0
9 13 -53 0
-9 13 53 0
9 -13 53 0
-54 48 0
-54 53 0
-48 -53 54 0
-52 -54 -55 0
52 54 -55 0
-52 54 55 0
52 -54 55 0
45 55 -56 0
-45 -55 -56 0
45 -55 56 0
-45 55 56 0
57 -31 0
57 -19 0
31 19 -57 0
39 -41 -58 0
-39 41 -58 0
39 41 58 0
-39 -41 58 0
59 -58 0
59 -27 0
58 27 -59 0
60 57 0
60 -59 0
-57 59 -60 0
61 -24 0
61 -25 0
24 25 -61 0
-5 -13 -62 0
5 13 -62 0
-5 13 62 0
5 -13 62 0
-31 62 -63 0
31 -62 -63 0
-31 -62 63 0
31 62 63 0
64 -61 0
64 -63 0
61 63 -64 0
-65 60 0
-65 -64 0
-60 64 65 0
4 3 -66 0
-4 -3 -66 0
4 -3 66 0
-4 3 66 0
65 -66 -67 0
-65 66 -67 0
65 66 67 0
-65 -66 67 0
-68 42 0
-68 26 0
-42 -26 68 0
-69 38 0
-69 68 0
-38 -68 69 0
-70 8 0
-70 29 0
-8 -29 70 0
-71 48 0
-71 70 0
-48 -70 71 0
-72 69 0
-72 -71 0
-69 71 72 0
73 -47 0
73 27 0
47 -27 -73 0
-72 -73 -74 0
72 73 -74 0
-72 73 74 0
72 -73 74 0
75 -38 0
75 -68 0
38 68 -75 0
76 -75 0
76 -4 0
75 4 -76 0
76 14 -77 0
-76 -14 -77 0
76 -14 77 0
-76 14 77 0
14 -20 -78 0
-14 20 -78 0
14 20 78 0
-14 -20 78 0
-77 -78 -79 0
77 78 -79 0
-77 78 79 0
77 -78 79 0
-20 -39 -80 0
20 39 -80 0
-20 39 80 0
20 -39 80 0
81 -21 0
81 -13 0
21 13 -81 0
-70 -47 -82 0
70 47 -82 0
-70 47 82 0
70 -47 82 0
81 -82 -83 0
-81 82 -83 0
81 82 83 0
-81 -82 83 0
-80 -83 -84 0
80 83 -84 0
-80 83 84 0
80 -83 84 0
-85 -79 0
-85 84 0
79 -84 85 0
74 -85 -86 0
-74 85 -86 0
74 85 86 0
-74 -85 86 0
-87 67 0
-87 86 0
-67 -86 87 0
88 -56 0
88 -87 0
56 87 -88 0
89 -22 0
89 -88 0
22 88 -89 0
90 18 0
90 89 0
-18 -89 -90 0
-49 -21 27 33 -67 0
-10 -54 32 -27 -55 20 1 71 0
27 5 9 -57 -12 39 32 0
35 -43 84 0
13 30 -67 -20 64 -89 -42 -14 0
36 -65 51 -1 -38 0
-18 -5 41 -33 81 1 0
68 64 -4 0
-27 -76 -82 0
-32 10 80 -82 -17 0
28 37 -49 -34 0
67 55 -47 81 0
59 9 -45 26 0
-25 -43 -65 -15 -50 19 -57 0
23 -10 -34 -73 -36 67 -55 5 0
-26 19 -72 36 -73 41 0
69 -28 66 34 -4 0
-5 -25 26 0
83 -79 66 -52 0
59 85 -58 -86 42 -19 0
-39 -77 52 69 48 76 0
-14 -83 -2 -50 32 58 -84 0
34 85 26 -63 87 0
-53 55 -15 -38 0
47 56 57 51 4 -50 -43 0
-87 -88 -6 -81 0
87 63 -58 70 -1 -47 0
90 0
